db/inputs/889145941402921018270911701417888759.smt2
(set-logic QF_FP)
(declare-const x0 (_ FloatingPoint 11 53))
(declare-const x1 (_ FloatingPoint 11 53))
(declare-const x2 (_ FloatingPoint 11 53))
(declare-const x3 (_ FloatingPoint 11 53))
(declare-const x4 (_ FloatingPoint 11 53))
(declare-const x5 (_ FloatingPoint 11 53))
(declare-const x6 (_ FloatingPoint 11 53))
(declare-const x7 (_ FloatingPoint 11 53))
(declare-const x8 (_ FloatingPoint 11 53))
(declare-const x9 (_ FloatingPoint 11 53))
(declare-const x10 (_ FloatingPoint 11 53))
(declare-const x11 (_ FloatingPoint 11 53))
(declare-const x12 (_ FloatingPoint 11 53))
(declare-const x13 (_ FloatingPoint 11 53))
(declare-const x14 (_ FloatingPoint 11 53))
(declare-const x15 (_ FloatingPoint 11 53))
(declare-const x16 (_ FloatingPoint 11 53))
(declare-const x17 (_ FloatingPoint 11 53))
(assert (fp.eq (fp.div RNE x5 x13) (fp.div RNE x9 x5)))
(assert (fp.eq (fp.add RNE x10 x1) (fp.add RNE x1 x10)))
(assert (fp.lt (fp.sub RNE x5 x16) (fp.sub RNE x0 x17)))
(assert (fp.eq (fp.add RNE x10 x14) (fp.sub RNE x14 x14)))
(assert (fp.geq (fp.sub RNE x16 x8) (fp.neg x5)))
(assert (fp.lt (fp.mul RNE x5 x7) (fp.mul RNE x8 x7)))
(assert (fp.geq (fp.div RNE x2 x14) (fp.mul RNE x1 x13)))
(assert (fp.gt (fp.neg x7) (fp.mul RNE x7 x3)))
(assert (fp.eq (fp.mul RNE x10 x1) (fp.mul RNE x13 x14)))
(assert (fp.gt (fp.div RNE x7 x2) (fp.sub RNE x10 x2)))
(assert (fp.gt (fp.sub RNE x10 x12) (fp.div RNE x9 x6)))
(assert (fp.gt (fp.neg x13) (fp.sub RNE x9 x15)))
(assert (fp.leq (fp.neg x11) (fp.neg x15)))
(assert (fp.geq (fp.div RNE x6 x16) (fp.mul RNE x7 x7)))
(assert (fp.eq (fp.add RNE x10 x12) (fp.mul RNE x10 x8)))
(assert (fp.eq (fp.add RNE x9 x11) (fp.neg x10)))
(assert (fp.leq (fp.neg x4) (fp.sub RNE x12 x17)))
(assert (fp.geq (fp.sub RNE x17 x11) (fp.add RNE x8 x4)))
(check-sat)
