db/data/889145941402921018270911701417888759.z3.out
-------------------
2500.140890785
